10J3M/DAT/10J3MNTL-2.dat
10 3
30.8036 30.8036
28.5561 28.5561
23.0934 23.0934
30.8 30.8
26.8344 26.8344
23.1036 23.1036
26.4463 26.4463
27.4807 27.4807
18.0632 18.0632
18.6668 18.6668
63.462