10J3M/SOL/10J3MNTL-2.sol
solution status: optimal solution found
objective value:                              66.6793
x#1#3                                               1 	(obj:0)
x#2#3                                               1 	(obj:0)
x#3#2                               0.673001320392985 	(obj:0)
x#4#3                               0.477839733084351 	(obj:0)
x#5#2                                               1 	(obj:0)
x#6#1                                               1 	(obj:0)
x#7#2                                               1 	(obj:0)
x#8#1                                               1 	(obj:0)
x#10#1                              0.732870004738588 	(obj:0)
z                                             66.6793 	(obj:1)
